; asyncpg :: corpus-study/repo_src/asyncpg/asyncpg/pool.py :: QUEUE 'Pool._queue' :: naive encoding (verdict: unsat)
; Generated by snf-pipeline (encoder.py) -- run with any
; SMT-LIB2-compliant solver, e.g. `z3 asyncpg__corpus-study_repo_src_asyncpg_asyncpg_pool.py__Pool._queue__naive.smt2`
; benchmark generated from python API
(set-info :status unknown)
(declare-fun conn_0 () Int)
(assert
 (>= conn_0 1))
(assert
 (<= conn_0 2))
(assert
 false)
(check-sat)
